(set-logic HORN)

(declare-fun |main@.lr.ph..lr.ph.split_crit_edge| ( Int Int ) Bool)
(declare-fun |main@_bb1| ( Int Int ) Bool)
(declare-fun |main@entry| ( ) Bool)
(declare-fun |main@.lr.ph.i| ( Int Int Bool Int ) Bool)
(declare-fun |main@_bb| ( Int Int Bool Int ) Bool)
(declare-fun |main@verifier.error.split| ( ) Bool)
(declare-fun |main@.lr.ph.i4| ( Int Int ) Bool)

(assert
  (forall ( (CHC_COMP_UNUSED Bool) ) 
    (=>
      (and
        true
      )
      main@entry
    )
  )
)
(assert
  (forall ( (A Bool) (B Bool) (C Bool) (D Bool) (E Bool) (F Bool) (G Bool) (H Bool) (I Bool) (J Int) (K Int) (L Int) (M Bool) (N Bool) (O Int) (P Int) (Q Int) ) 
    (=>
      (and
        main@entry
        (and (= E (not (<= 1 J)))
     (= D (not (<= 1 K)))
     (= C (and A B))
     (= B (not (<= J 0)))
     (= A (not (<= K 0)))
     (or (not M) (not N) (= Q L))
     (or (not M) (not N) (= P O))
     (or (not M) (not N) (= O K))
     (or (not M) (not N) (= L J))
     (or (not H) (not I) (not N))
     (or (not F) (not G) (not H))
     (or (not N) (and H N))
     (or (not M) (and M N))
     (or (not H) (and F H))
     (= M true)
     (not D)
     (= C true)
     (= I (or D E)))
      )
      (main@.lr.ph..lr.ph.split_crit_edge P Q)
    )
  )
)
(assert
  (forall ( (A Bool) (B Bool) (C Bool) (D Bool) (E Bool) (F Bool) (G Bool) (H Bool) (I Bool) (J Bool) (K Int) (L Bool) (M Int) (N Bool) (O Bool) (P Int) (Q Int) (R Int) (S Bool) (T Int) ) 
    (=>
      (and
        main@entry
        (and (= B (not (<= K 0)))
     (= A (not (<= Q 0)))
     (= J (not (<= 1 Q)))
     (= G (or D J))
     (= D (not (<= 1 K)))
     (or (not N) (not O) (= P Q))
     (or (not N) (not O) (= T M))
     (or (not N) (not O) (= R P))
     (or (not N) (not O) (= M K))
     (or (not N) (not O) (= S L))
     (or (not N) (not O) (= L J))
     (or (not H) (not I) (not O))
     (or (not E) F (not H))
     (or (not O) (and H O))
     (or (not N) (and N O))
     (or (not H) (= I (= Q K)))
     (or (not H) (and E H))
     (or (not G) (not H))
     (= N true)
     (= C true)
     (not J)
     (= C (and A B)))
      )
      (main@.lr.ph.i Q R S T)
    )
  )
)
(assert
  (forall ( (A Bool) (B Bool) (C Bool) (D Bool) (E Bool) (F Bool) (G Bool) (H Bool) (I Int) (J Bool) (K Bool) (L Int) (M Bool) (N Bool) (O Int) (P Bool) (Q Bool) (R Int) (S Int) (T Int) ) 
    (=>
      (and
        main@entry
        (and (= B (not (<= I 0)))
     (= A (not (<= O 0)))
     (= H (or D E))
     (= E (not (<= 1 I)))
     (= D (not (<= 1 O)))
     (or (not Q) (not N) (not M))
     (or (not P) (not Q) (= S R))
     (or (not P) (not Q) (= R O))
     (or (not K) (not M) (= L O))
     (or (not K) (not M) (= T L))
     (or J (not K) (not M))
     (or (not F) G (not K))
     (or (not M) (= N (= O 0)))
     (or (not M) (and K M))
     (or (not Q) (and Q M))
     (or (not P) (and P Q))
     (or (not K) (= J (= O I)))
     (or (not K) (and F K))
     (or (not H) (not K))
     (= C true)
     (= P true)
     (not D)
     (= C (and A B)))
      )
      (main@.lr.ph.i4 S T)
    )
  )
)
(assert
  (forall ( (A Bool) (B Bool) (C Bool) (D Bool) (E Bool) (F Bool) (G Bool) (H Int) (I Bool) (J Bool) (K Int) (L Int) (M Int) (N Bool) (O Bool) (P Bool) (Q Bool) (R Bool) (S Bool) (T Bool) (U Bool) (V Bool) (W Bool) ) 
    (=>
      (and
        main@entry
        (and (= C (and A B))
     (= B (not (<= H 0)))
     (= A (not (<= M 0)))
     (= E (not (<= 1 H)))
     (= D (not (<= 1 M)))
     (or (not V) (and S T) (and R V))
     (or (not S) (not T) U)
     (or (not O) (not R) (= Q P))
     (or (not O) (not R) (not P))
     (or N (not O) (not R))
     (or (not J) (not O) (= K L))
     (or (not J) (not O) (= L M))
     (or I (not J) (not O))
     (or (not G) (not S) (not F))
     (or G (not J) (not F))
     (or (not W) (and V W))
     (or (not R) (and O R))
     (or Q (not R))
     (or (not S) (and S F))
     (or S (not T))
     (or (not O) (= N (= M 0)))
     (or (not O) (and J O))
     (or (not J) (= I (= M H)))
     (or (not J) (and J F))
     (or (not J) (not U))
     (= W true)
     (= C true)
     (not D)
     (= U (or D E)))
      )
      main@verifier.error.split
    )
  )
)
(assert
  (forall ( (A Int) (B Bool) (C Bool) (D Int) (E Int) (F Int) ) 
    (=>
      (and
        (main@.lr.ph..lr.ph.split_crit_edge E A)
        (and (or (not B) (not C) (= D A))
     (or (not B) (and B C))
     (= B true)
     (or (not B) (not C) (= F D)))
      )
      (main@_bb1 E F)
    )
  )
)
(assert
  (forall ( (A Bool) (B Bool) (C Int) (D Bool) (E Int) (F Int) (G Bool) (H Bool) (I Bool) (J Bool) (K Int) (L Int) (M Int) (N Bool) (O Bool) (P Int) (Q Int) (R Int) ) 
    (=>
      (and
        (main@_bb1 F C)
        (let ((a!1 (or (not O) (= L (+ F (* (- 1) K)))))
      (a!2 (or (not O) (= I (not (<= 1 K)))))
      (a!3 (or (not O) (= H (not (<= 1 L))))))
  (and (= B (not (<= F C)))
       (or (not N) (not O) (= R M))
       (or (not N) (not O) (= Q P))
       (or (not N) (not O) (= P L))
       (or (not N) (not O) (= M K))
       (or (not J) (not N) (not O))
       (or (not D) (not O) (= E C))
       (or (not D) (not O) (= K E))
       (or B (not D) (not O))
       a!1
       (or (not O) (= J (or H I)))
       a!2
       a!3
       (or (not O) (and D O))
       (or (not N) (and N O))
       (or (not G) (not O))
       (not A)
       (= N true)
       (= A (= C F))))
      )
      (main@.lr.ph..lr.ph.split_crit_edge Q R)
    )
  )
)
(assert
  (forall ( (A Bool) (B Bool) (C Bool) (D Int) (E Bool) (F Bool) (G Int) (H Bool) (I Bool) (J Int) (K Int) (L Int) ) 
    (=>
      (and
        (main@_bb1 K D)
        (let ((a!1 (or (not I) (= G (+ D (* (- 1) K)))))
      (a!2 (or (not I) (= F (not (<= 1 G))))))
  (and (= A (= D K))
       (or (not H) (not I) (= L J))
       (or (not H) (not I) (= J G))
       (or (not H) (not I) (not F))
       (or (not B) (not C) (not I))
       a!1
       a!2
       (or (not I) (and B I))
       (or (not I) (not E))
       (or (not H) (and H I))
       (= H true)
       (not A)
       (= C (not (<= K D)))))
      )
      (main@_bb1 K L)
    )
  )
)
(assert
  (forall ( (A Bool) (B Bool) (C Int) (D Bool) (E Bool) (F Bool) (G Int) (H Bool) (I Int) (J Int) (K Bool) (L Int) (M Int) (N Bool) (O Bool) (P Bool) (Q Bool) (R Bool) (S Bool) (T Bool) (U Bool) ) 
    (=>
      (and
        (main@_bb1 J G)
        (let ((a!1 (or (not P) (= L (+ J (* (- 1) M)))))
      (a!2 (or (not P) (= N (not (<= 1 L)))))
      (a!3 (or (not P) (= O (not (<= 1 M)))))
      (a!4 (or (not D) (= C (+ G (* (- 1) J)))))
      (a!5 (or (not D) (= E (not (<= 1 C))))))
  (and (= F (not (<= J G)))
       (or (not T) (and R T) (and T S))
       (or Q (not R) (not P))
       (or (not H) (not P) (= I G))
       (or (not H) (not P) (= M I))
       (or F (not H) (not P))
       (or (not F) (not H) (not D))
       (or E (not D) (not S))
       (or (not U) (and T U))
       (or (not S) (and D S))
       a!1
       a!2
       a!3
       (or (not P) (= Q (or O N)))
       (or (not P) (and H P))
       a!4
       a!5
       (or (not D) (and H D))
       (or (not B) (not D))
       (or (not R) (and R P))
       (or (not K) (not P))
       (= U true)
       (not A)
       (= A (= G J))))
      )
      main@verifier.error.split
    )
  )
)
(assert
  (forall ( (A Int) (B Bool) (C Bool) (D Int) (E Int) (F Int) (G Bool) (H Int) ) 
    (=>
      (and
        (main@.lr.ph.i E F G A)
        (and (or (not B) (not C) (= H D))
     (or (not B) (and B C))
     (= B true)
     (or (not B) (not C) (= D A)))
      )
      (main@_bb E F G H)
    )
  )
)
(assert
  (forall ( (A Bool) (B Int) (C Bool) (D Int) (E Bool) (F Int) (G Int) (H Bool) (I Bool) (J Bool) (K Bool) (L Int) (M Int) (N Bool) (O Int) (P Bool) (Q Bool) (R Int) (S Int) (T Int) (U Bool) (V Int) ) 
    (=>
      (and
        (main@_bb S G A D)
        (let ((a!1 (or (not Q) (= M (+ G (* (- 1) L)))))
      (a!2 (or (not Q) (= K (not (<= 1 M)))))
      (a!3 (or (not Q) (= H (not (<= 1 L))))))
  (and (= C (not (<= G D)))
       (or (not P) (not Q) (= R M))
       (or (not P) (not Q) (= V O))
       (or (not P) (not Q) (= T R))
       (or (not P) (not Q) (= O L))
       (or (not P) (not Q) (= U N))
       (or (not P) (not Q) (= N K))
       (or (not E) (not Q) (= F D))
       (or (not E) (not Q) (= L F))
       (or C (not E) (not Q))
       (or (not J) (not P) (not Q))
       a!1
       a!2
       (or (not Q) (= J (= M L)))
       (or (not Q) (= I (or H K)))
       a!3
       (or (not Q) (and E Q))
       (or (not P) (and P Q))
       (or (not I) (not Q))
       (= P true)
       (= B (+ D (* (- 1) G)))))
      )
      (main@.lr.ph.i S T U V)
    )
  )
)
(assert
  (forall ( (A Int) (B Bool) (C Bool) (D Bool) (E Bool) (F Bool) (G Int) (H Bool) (I Bool) (J Int) (K Int) (L Int) (M Bool) (N Int) ) 
    (=>
      (and
        (main@_bb K L M A)
        (let ((a!1 (or (not I) (= D (not (<= 1 G))))))
  (and (= C (not (<= L A)))
       (or (not H) (not I) (= J G))
       (or (not H) (not I) (= N J))
       (or (not F) (not H) (not I))
       (or (not B) (not C) (not I))
       (or (not I) (= F (= L G)))
       (or (not I) (= E (or D M)))
       a!1
       (or (not I) (and B I))
       (or (not H) (and H I))
       (or (not E) (not I))
       (= H true)
       (= G (+ A (* (- 1) L)))))
      )
      (main@_bb K L M N)
    )
  )
)
(assert
  (forall ( (A Bool) (B Bool) (C Bool) (D Int) (E Bool) (F Bool) (G Int) (H Bool) (I Int) (J Bool) (K Int) (L Int) (M Bool) (N Bool) (O Bool) (P Int) (Q Bool) (R Int) (S Bool) (T Int) (U Int) (V Int) (W Bool) (X Int) (Y Bool) (Z Int) (A1 Bool) (B1 Bool) (C1 Int) (D1 Bool) (E1 Bool) (F1 Int) (G1 Int) (H1 Int) ) 
    (=>
      (and
        (main@_bb C1 L A I)
        (let ((a!1 (or (not F) (= B (not (<= 1 D)))))
      (a!2 (or (not S) (= P (+ L (* (- 1) R)))))
      (a!3 (or (not S) (= N (not (<= 1 P)))))
      (a!4 (or (not S) (= M (not (<= 1 R))))))
  (and (= H (not (<= L I)))
       (or (not F) (not H) (not J))
       (or (not A1) (and W A1) (and Y A1))
       (or (not E1) (not B1) (not A1))
       (or (not D1) (not E1) (= G1 F1))
       (or (not D1) (not E1) (= F1 C1))
       (or (not Y) (not F) (= G L))
       (or (not Y) (not F) (= V G))
       (or (not Y) E (not F))
       (or (not Y) (not A1) (= Z V))
       (or (not Y) (not A1) (= H1 Z))
       (or (not W) (not A1) (= X U))
       (or (not W) (not A1) (= H1 X))
       (or (not S) (not J) (= K I))
       (or (not S) (not J) (= R K))
       (or (not S) H (not J))
       (or (not S) (not W) (= T R))
       (or (not S) (not W) (= U T))
       (or (not S) (not W) Q)
       (or (not F) (= E (= L D)))
       (or (not F) (= C (or A B)))
       a!1
       (or (not F) (and F J))
       (or (not C) (not F))
       (or (not A1) (= B1 (= C1 0)))
       (or (not E1) (and E1 A1))
       (or (not D1) (and D1 E1))
       (or (not Y) (and Y F))
       (or (not W) (and S W))
       a!2
       a!3
       a!4
       (or (not S) (= Q (= P R)))
       (or (not S) (= O (or M N)))
       (or (not S) (and S J))
       (or (not S) (not O))
       (= D1 true)
       (= D (+ I (* (- 1) L)))))
      )
      (main@.lr.ph.i4 G1 H1)
    )
  )
)
(assert
  (forall ( (A Bool) (B Bool) (C Bool) (D Int) (E Bool) (F Bool) (G Int) (H Bool) (I Int) (J Bool) (K Int) (L Int) (M Bool) (N Bool) (O Bool) (P Int) (Q Bool) (R Int) (S Bool) (T Int) (U Int) (V Int) (W Bool) (X Int) (Y Bool) (Z Int) (A1 Int) (B1 Int) (C1 Bool) (D1 Bool) (E1 Bool) (F1 Bool) (G1 Bool) (H1 Bool) (I1 Bool) ) 
    (=>
      (and
        (main@_bb B1 L A I)
        (let ((a!1 (or (not F) (= B (not (<= 1 D)))))
      (a!2 (or (not S) (= P (+ L (* (- 1) R)))))
      (a!3 (or (not S) (= N (not (<= 1 P)))))
      (a!4 (or (not S) (= M (not (<= 1 R))))))
  (and (= H (not (<= L I)))
       (or (not F) (not H) (not J))
       (or (not D1) (and W D1) (and Y D1))
       (or (not D1) (not G1) (= F1 E1))
       (or C1 (not D1) (not G1))
       (or (not E1) (not D1) (not G1))
       (or (not Y) (not F) (= G L))
       (or (not Y) (not F) (= V G))
       (or (not Y) (not F) E)
       (or (not Y) (not D1) (= A1 V))
       (or (not Y) (not D1) (= Z A1))
       (or (not W) (not D1) (= X U))
       (or (not W) (not D1) (= Z X))
       (or (not S) (not J) (= R K))
       (or (not S) (not J) (= K I))
       (or (not S) H (not J))
       (or (not S) (not W) (= U T))
       (or (not S) (not W) (= T R))
       (or (not S) (not W) Q)
       (or (not F) (= E (= L D)))
       (or (not F) (= C (or B A)))
       a!1
       (or (not F) (and F J))
       (or (not C) (not F))
       (or (not I1) (and H1 I1))
       (or (not G1) (and D1 G1))
       (or (not H1) (and H1 G1))
       (or (not D1) (= C1 (= B1 0)))
       (or F1 (not G1))
       (or (not Y) (and Y F))
       (or (not W) (and S W))
       a!2
       (or (not S) (= O (or M N)))
       a!3
       a!4
       (or (not S) (= Q (= P R)))
       (or (not S) (and S J))
       (or (not S) (not O))
       (= I1 true)
       (= D (+ I (* (- 1) L)))))
      )
      main@verifier.error.split
    )
  )
)
(assert
  (forall ( (A Bool) (B Bool) (C Int) (D Bool) (E Int) (F Bool) (G Bool) (H Int) (I Int) (J Int) ) 
    (=>
      (and
        (main@.lr.ph.i4 C J)
        (let ((a!1 (or (not G) (= E (+ C (* (- 1) J))))))
  (and (or (not F) (not G) (= I H))
       (or (not F) (not G) (= H E))
       (or (not F) (not G) (not D))
       (or (not A) (not B) (not G))
       a!1
       (or (not G) (= D (= C J)))
       (or (not G) (and A G))
       (or (not F) (and F G))
       (= F true)
       (= B (not (<= J C)))))
      )
      (main@.lr.ph.i4 I J)
    )
  )
)
(assert
  (forall ( (A Int) (B Int) (C Int) (D Bool) (E Bool) (F Bool) (G Bool) (H Bool) (I Bool) (J Bool) (K Bool) (L Bool) (M Bool) (N Bool) (O Bool) (P Bool) (Q Bool) (R Bool) ) 
    (=>
      (and
        (main@.lr.ph.i4 B C)
        (let ((a!1 (or (not I) (= A (+ B (* (- 1) C))))))
  (and (or (not M) (and F G) (and I J))
       (or (not M) (not P) (= O N))
       (or (not M) (not P) (= N L))
       (or (not I) (not J) (= L K))
       (or (not I) (not J) (not K))
       (or (not F) (not G) (= L H))
       (or (not F) (not G) H)
       (or E (not I) (not J))
       (or (not D) (not F) (not I))
       (or D (not F) (not G))
       (or (not R) (and Q R))
       (or (not P) (and M P))
       (or (not Q) (and Q P))
       (or O (not P))
       a!1
       (or (not I) (= E (= B C)))
       (or (not I) (and F I))
       (or I (not J))
       (or F (not G))
       (= R true)
       (= D (not (<= C B)))))
      )
      main@verifier.error.split
    )
  )
)
(assert
  (forall ( (CHC_COMP_UNUSED Bool) ) 
    (=>
      (and
        main@verifier.error.split
        true
      )
      false
    )
  )
)

(check-sat)
(exit)
